p tw 33 36
1 2
2 13
3 4
3 6
4 5
5 6
5 23
6 7
7 8
8 9
9 10
9 12
10 11
11 15
12 14
13 24
14 15
15 16
16 17
17 18
18 19
19 20
20 21
21 22
22 29
23 25
24 28
25 26
26 27
28 29
29 30
30 31
30 23
31 32
32 33
33 3
